language ESSENCE' 1.0

letting n_classes be 26
letting n_options be 5
letting n_cars be 200
letting quantity_Function1D be
        [4, 10, 3, 6, 8, 3, 1, 5, 7, 2, 8, 17, 31, 2, 9, 5, 3, 15, 7, 14, 21, 1, 4, 2, 9, 3; int(1..26)]
letting usage_RelationAsSet_Explicit_1 be
        [1, 1, 2, 2, 3, 3, 3, 4, 4, 5, 5, 5, 6, 6, 6, 7, 7, 7, 8, 9, 9, 10, 10, 10, 11, 12, 12, 13, 14, 14, 14, 14, 15,
         16, 16, 17, 17, 18, 18, 19, 19, 20, 20, 20, 21, 22, 22, 22, 22, 23, 23, 23, 24, 24, 24, 25, 25, 26, 26, 26;
             int(1..60)]
letting usage_RelationAsSet_Explicit_2 be
        [3, 5, 2, 3, 1, 3, 4, 2, 5, 2, 3, 4, 1, 3, 5, 2, 4, 5, 5, 3, 4, 2, 3, 5, 4, 2, 4, 2, 1, 2, 3, 4, 3, 1, 5, 4, 5,
         1, 2, 1, 4, 1, 2, 4, 1, 1, 2, 3, 5, 1, 2, 5, 1, 4, 5, 1, 3, 1, 2, 3;
             int(1..60)]
letting blksize_Function1D be [2, 3, 3, 5, 5; int(1..5)]
letting maxcars_Function1D be [1, 2, 1, 2, 1; int(1..5)]
letting fin1 be 26
letting fin2 be 31
letting fin3 be 5
letting fin4 be 2
letting fin5 be 5
letting fin6 be 5
letting fin7 be 60
